6 24 4 10
13 5 8 16 19 6 19 11 6 20 8 18 15 6 6 1 11 1 4 3 10 2 11 8 
4.31 1.58 1.18 0.1 4.11 6.16 5.01 3.17 6.37 2.53 7.16 7.87 3.32 5.04 1.92 7.55 2.46 4.62 7.23 4.12 3.26 3.57 5.94 0.19 
2.63 3.97 2.87 2.58 4.25 1.22 4.4 1.64 7.35 4.47 2.95 1.27 0.49 6.82 1.35 2.68 0.08 4.98 6.67 4.67 4.28 7.52 6.27 4.02 
2 2.29 5.16 7.6 4.59 7.69 2.47 4.42 5.96 5.16 2.86 7.35 5.86 3.01 2.99 0.57 0.19 1.03 6.13 3.15 2.33 4.06 0.86 1.91 
0.45 1.12 2.5 0.91 0.22 7.19 1.67 5.35 6.21 7.14 7.4 2.75 4.46 6.59 0.2 7.53 1.12 7.23 2.12 3.03 2.67 1.82 1.92 6.23 
4 4 4 4 4 4 4 4 4 4 4 4 4 4 4 4 4 4 4 4 4 4 4 4 
4.05 2.98 1.68 7.15 2.72 1.23 2.57 7.58 7.84 6.74 5.21 2.96 2.14 5.71 1.04 5.28 2.35 4.65 7.29 4.8 1.26 7.37 1.94 2.8 
1 1 1 1 1 1 1 1 1 1 1 1 1 1 1 1 1 1 1 1 1 1 1 1 
1 1 1 1 1 1 1 1 1 1 1 1 1 1 1 1 1 1 1 1 1 1 1 1 
1 1 1 1 1 1 1 1 1 1 1 1 1 1 1 1 1 1 1 1 1 1 1 1 
1 1 1 1 1 1 1 1 1 1 1 1 1 1 1 1 1 1 1 1 1 1 1 1 
1 1 1 1 1 1 1 1 1 1 1 1 1 1 1 1 1 1 1 1 1 1 1 1 
1 1 1 1 1 1 1 1 1 1 1 1 1 1 1 1 1 1 1 1 1 1 1 1 
0.01 0.01 0.01 0.01 0.01 0.01 0.01 0.01 0.01 0.01 0.01 0.01 0.01 0.01 0.01 0.01 0.01 0.01 0.01 0.01 0.01 0.01 0.01 0.01 
0.02 0.02 0.02 0.02 0.02 0.02 0.02 0.02 0.02 0.02 0.02 0.02 0.02 0.02 0.02 0.02 0.02 0.02 0.02 0.02 0.02 0.02 0.02 0.02 
0.03 0.03 0.03 0.03 0.03 0.03 0.03 0.03 0.03 0.03 0.03 0.03 0.03 0.03 0.03 0.03 0.03 0.03 0.03 0.03 0.03 0.03 0.03 0.03 
0.04 0.04 0.04 0.04 0.04 0.04 0.04 0.04 0.04 0.04 0.04 0.04 0.04 0.04 0.04 0.04 0.04 0.04 0.04 0.04 0.04 0.04 0.04 0.04 
0.05 0.05 0.05 0.05 0.05 0.05 0.05 0.05 0.05 0.05 0.05 0.05 0.05 0.05 0.05 0.05 0.05 0.05 0.05 0.05 0.05 0.05 0.05 0.05 
1 1 1 1 1 1 1 1 1 1 1 1 1 1 1 1 1 1 1 1 1 1 1 1 
